 vasp.4.6.36 17Feb09 complex
 executed on             LinuxIFC date 2013.02.13  10:33:50

 INCAR:
 POTCAR:   PAW_PBE Fe 06Sep2000
 POTCAR:   PAW_PBE Fe 06Sep2000
   VRHFIN =Fe:  d7 s1

   TITEL  = PAW_PBE Fe 06Sep2000
   POMASS =   55.847; ZVAL   =    8.000    mass and valenz
   ENMAX  =  267.883; ENMIN  =  200.912 eV
   QCUT   =   -4.437; QGAM   =    8.874    optimization parameters

   Description
     l     E      TYP  RCUT    TYP  RCUT
     2   .000     23  2.300
     2   .000     23  2.300
     0   .000     23  2.300
     0   .000     23  2.300
     1  -.200     23  2.300
     1   .000     23  2.300
     3   .000      7   .000

 Optimization of the real space projectors (new method)

 maximal supplied QI-value         = 16.25
 optimisation between [QCUT,QGAM] = [  8.78, 17.71] = [ 21.57, 87.87] Ry
 Optimized for a Real-space Cutoff    1.38 Angstroem

   l    n(q)    QCUT    max X(q) W(low)/X(q) W(high)/X(q)  e(spline)
   2      6     8.776     4.378    0.25E-03    0.20E-03    0.28E-07
   2      6     8.776    23.237    0.13E-02    0.22E-02    0.20E-06
   0      7     8.776    17.641    0.66E-04    0.26E-05    0.16E-07
   0      7     8.776    50.908    0.74E-03    0.27E-03    0.25E-06
   1      7     8.776     6.148    0.13E-03    0.25E-03    0.21E-07
   1      7     8.776     8.345    0.28E-03    0.64E-03    0.11E-06
 PAW_PBE Fe 06Sep2000                   :

 POSCAR:  QM atoms created by QMCL
  positions in direct lattice

 ion  position               nearest neighbor table
   1  0.256  0.265  0.334-   4 2.45  20 2.45  26 2.46  21 2.46  21 2.83   4 2.83  20 2.84  26 2.84

   2  0.256  0.382  0.335-  27 2.45  32 2.46   8 2.46  26 2.46   4 2.46   3 2.46   8 2.83  26 2.83
                            27 2.83   3 2.84  32 2.84   4 2.84
   3  0.186  0.382  0.002-   6 2.45   4 2.45   8 2.45   2 2.46   6 2.83   4 2.83   2 2.84   8 2.84

   4  0.221  0.323  0.668-   3 2.45   1 2.45   2 2.46  26 2.46   3 2.83   1 2.83  26 2.83   2 2.84

   5  0.256  0.500  0.336-  38 2.45   8 2.45  33 2.45  32 2.46  12 2.46   7 2.46  38 2.83  32 2.83
                            33 2.83   7 2.84   8 2.84  12 2.84
   6  0.151  0.441  0.335-   7 2.45   3 2.45   8 2.46   3 2.83   8 2.84   7 2.84
   7  0.186  0.500  0.002-  12 2.45   6 2.45   8 2.45  10 2.46   5 2.46  12 2.83   8 2.83   5 2.84
                             6 2.84  10 2.84
   8  0.221  0.441  0.669-   5 2.45   7 2.45  32 2.45   3 2.45   2 2.46   6 2.46   2 2.83   7 2.83
                            32 2.84   6 2.84   5 2.84   3 2.84
   9  0.256  0.618  0.335-  39 2.45  12 2.45  44 2.45  11 2.46  38 2.46  14 2.46  12 2.83  39 2.83
                            44 2.83  11 2.84  38 2.84  14 2.84
  10  0.151  0.559  0.335-  11 2.45   7 2.46  12 2.46  11 2.83  12 2.84   7 2.84
  11  0.186  0.618  0.001-  10 2.45  14 2.45   9 2.46  12 2.46  10 2.83  14 2.83   9 2.84  12 2.84

[...]

  18  0.395  0.265  0.002-  16 2.45  23 2.45  19 2.45  21 2.46  17 2.46  25 2.46  16 2.83  23 2.83
                            21 2.83  19 2.84  17 2.84  25 2.84
  19  0.430  0.206  0.669-  55 2.45  18 2.45  17 2.46  15 2.46  16 2.46  55 2.83  17 2.83  15 2.83
                            18 2.84  16 2.84
  20  0.290  0.206  0.001-   1 2.45  21 2.46  17 2.46  17 2.83   1 2.84  21 2.84
  21  0.325  0.265  0.668-  17 2.45  26 2.45  18 2.46  20 2.46   1 2.46  23 2.46   1 2.83  18 2.83
                            26 2.83  17 2.83  20 2.84  23 2.84
  22  0.465  0.382  0.337-  62 2.45  31 2.45  24 2.45  61 2.45  67 2.46  25 2.46  62 2.83  24 2.83
                            31 2.83  61 2.83  67 2.84  25 2.84
  23  0.360  0.323  0.335-  25 2.45  18 2.45  27 2.45  26 2.46  21 2.46  24 2.46  25 2.83  26 2.83
                            18 2.83  27 2.83  21 2.84  24 2.84
  24  0.395  0.382  0.002-  29 2.45  22 2.45  27 2.45  25 2.45  23 2.46  31 2.46  22 2.83  27 2.83
                            29 2.83  25 2.83  23 2.84  31 2.84
  25  0.430  0.323  0.668-  61 2.45  23 2.45  24 2.45  16 2.45  22 2.46  18 2.46  61 2.83  23 2.83
                            24 2.83  16 2.84  18 2.84  22 2.84
  26  0.291  0.323  0.001-  21 2.45   2 2.46  23 2.46  27 2.46   1 2.46   4 2.46   2 2.83  23 2.83
                             4 2.83  21 2.83  27 2.84   1 2.84
  27  0.326  0.382  0.668-  24 2.45   2 2.45  23 2.45  32 2.46  26 2.46  29 2.46  24 2.83  32 2.83
                            23 2.83   2 2.83  26 2.84  29 2.84
  28  0.465  0.500  0.337-  30 2.45  37 2.45  73 2.45  31 2.45  67 2.45  68 2.46  30 2.83  73 2.83
                            67 2.83  68 2.83  37 2.83  31 2.83
  29  0.360  0.441  0.335-  24 2.45  30 2.45  32 2.45  33 2.45  27 2.46  31 2.46  24 2.83  31 2.83
                            33 2.83  32 2.83  27 2.84  30 2.84
  30  0.395  0.500  0.004-  28 2.45  29 2.45  35 2.45  37 2.45  31 2.45  33 2.46  28 2.83  33 2.83
                            31 2.83  37 2.83  29 2.84  35 2.84
  31  0.430  0.441  0.669-  67 2.45  22 2.45  28 2.45  30 2.45  29 2.46  24 2.46  67 2.83  30 2.83
                            22 2.83  29 2.83  28 2.83  24 2.84
  32  0.291  0.441  0.002-  29 2.45   8 2.45  33 2.45   2 2.46  27 2.46   5 2.46   5 2.83  27 2.83
                            29 2.83   8 2.84   2 2.84  33 2.84
  33  0.326  0.500  0.669-  35 2.45   5 2.45  29 2.45  32 2.45  30 2.46  38 2.46  30 2.83  35 2.83
                            29 2.83   5 2.83  32 2.84  38 2.84
  34  0.465  0.618  0.337-  37 2.45  74 2.45  36 2.45  79 2.45  73 2.46  43 2.46  74 2.83  36 2.83
                            37 2.83  73 2.83  79 2.83  43 2.84
  35  0.360  0.559  0.335-  36 2.45  38 2.45  30 2.45  33 2.45  37 2.46  39 2.46  37 2.83  38 2.83
                            33 2.83  36 2.83  39 2.84  30 2.84
  36  0.395  0.618  0.002-  35 2.45  39 2.45  34 2.45  43 2.45  41 2.46  37 2.46  34 2.83  39 2.83
                            35 2.83  43 2.83  41 2.84  37 2.84
  37  0.430  0.559  0.670-  73 2.45  34 2.45  28 2.45  30 2.45  35 2.46  36 2.46  73 2.83  30 2.83
                            34 2.83  35 2.83  28 2.83  36 2.84
  38  0.291  0.559  0.002-  35 2.45  12 2.45   5 2.45  39 2.45  33 2.46   9 2.46   5 2.83  35 2.83
                            39 2.83  12 2.83   9 2.84  33 2.84
  39  0.326  0.618  0.668-  36 2.45   9 2.45  41 2.45  38 2.45  44 2.46  35 2.46  36 2.83  38 2.83
                             9 2.83  41 2.84  44 2.84  35 2.84
  40  0.465  0.735  0.336-  80 2.45  42 2.45  43 2.46  83 2.46  48 2.46  79 2.46  80 2.83  42 2.83
                            83 2.84  43 2.84  48 2.84  79 2.84
  41  0.360  0.677  0.335-  43 2.45  42 2.45  39 2.45  44 2.45  45 2.46  36 2.46  43 2.83  44 2.83
                            42 2.83  39 2.84  45 2.84  36 2.84
  42  0.395  0.735  0.002-  40 2.45  41 2.45  45 2.46  48 2.46  47 2.46  43 2.46  40 2.83  45 2.83
                            41 2.83  48 2.84  47 2.84  43 2.84
  43  0.430  0.677  0.669-  79 2.45  41 2.45  36 2.45  40 2.46  34 2.46  42 2.46  79 2.83  41 2.83
                            36 2.83  40 2.84  42 2.84  34 2.84
  44  0.291  0.677  0.001-  45 2.45  41 2.45   9 2.45  14 2.46  39 2.46  13 2.46  41 2.83  14 2.83
                             9 2.83  45 2.84  39 2.84  13 2.84
  45  0.325  0.735  0.668-  47 2.45  44 2.45  42 2.46  13 2.46  49 2.46  41 2.46  13 2.83  42 2.83
                            44 2.84  47 2.84  49 2.84  41 2.84
  46  0.465  0.853  0.335-  84 2.45  83 2.46  48 2.46  48 2.84  84 2.84  83 2.84
  47  0.360  0.794  0.335-  45 2.45  48 2.45  49 2.46  42 2.46  48 2.83  49 2.83  45 2.84  42 2.84

  48  0.430  0.794  0.669-  83 2.45  47 2.45  42 2.46  46 2.46  40 2.46  83 2.83  47 2.83  46 2.84
                            42 2.84  40 2.84
  49  0.290  0.794  0.001-  13 2.45  47 2.46  45 2.46  47 2.83  13 2.84  45 2.84
  50  0.535  0.147  0.668-  15 2.46  52 2.46  55 2.46  55 2.83  15 2.84  52 2.84
  51  0.675  0.265  0.337-  53 2.45  54 2.45  86 2.45  89 2.45  85 2.46  60 2.46  60 2.83  85 2.83
                            53 2.84  86 2.84  89 2.84  54 2.84
  52  0.570  0.206  0.336-  55 2.45  54 2.45  53 2.45  50 2.46  56 2.46  55 2.83  56 2.83  54 2.83
                            50 2.84  53 2.84
  53  0.605  0.265  0.004-  56 2.45  60 2.45  51 2.45  52 2.45  54 2.46  58 2.46  56 2.83  54 2.83
                            58 2.83  51 2.84  60 2.84  52 2.84
  54  0.640  0.206  0.669-  52 2.45  51 2.45  85 2.45  53 2.46  53 2.83  52 2.83  85 2.84  51 2.84

  55  0.500  0.206  0.002-  52 2.45  19 2.45  15 2.46  56 2.46  50 2.46  16 2.46  19 2.83  52 2.83
                            50 2.83  16 2.84  15 2.84  56 2.84
  56  0.535  0.265  0.670-  16 2.45  53 2.45  58 2.46  55 2.46  61 2.46  52 2.46  16 2.83  53 2.83
                            52 2.83  61 2.84  55 2.84  58 2.84
  57  0.674  0.382  0.339-  90 2.45  59 2.45  60 2.45  66 2.46  89 2.46  94 2.46  89 2.83  66 2.83
                            59 2.83  94 2.84  60 2.84  90 2.84
  58  0.570  0.323  0.339-  61 2.45  60 2.45  59 2.45  56 2.46  62 2.46  53 2.46  61 2.83  53 2.83
                            60 2.83  59 2.84  56 2.84  62 2.84
  59  0.605  0.382  0.006-  57 2.45  58 2.45  66 2.45  62 2.46  64 2.46  60 2.46  62 2.83  60 2.83
                            57 2.83  64 2.83  66 2.84  58 2.84
  60  0.640  0.323  0.671-  58 2.45  53 2.45  89 2.45  57 2.45  59 2.46  51 2.46  51 2.83  59 2.83
                            58 2.83  57 2.84  89 2.84  53 2.84
  61  0.500  0.323  0.004-  58 2.45  25 2.45  22 2.45  62 2.46  56 2.46  16 2.46  58 2.83  25 2.83
                            22 2.83  56 2.84  62 2.84  16 2.84
  62  0.535  0.382  0.671-  64 2.45  22 2.45  67 2.45  59 2.46  61 2.46  58 2.46  22 2.83  59 2.83
                            67 2.83  64 2.83  61 2.84  58 2.84
  63  0.674  0.500  0.339-  65 2.43  95 2.45  72 2.46  94 2.46  66 2.46  99 2.46  65 2.81  99 2.83
                            94 2.83  72 2.83  66 2.83  95 2.84
  64  0.570  0.441  0.339-  62 2.45  68 2.45  67 2.45  66 2.45  59 2.46  65 2.47  67 2.83  68 2.83
                            66 2.83  59 2.83  62 2.83  65 2.84
  65  0.605  0.500  0.004-  63 2.43  66 2.44  72 2.44  70 2.47  64 2.47  68 2.47  63 2.81  66 2.83
                            72 2.83  64 2.84  70 2.84  68 2.85
  66  0.640  0.441  0.673-  65 2.44  94 2.45  64 2.45  59 2.45  57 2.46  63 2.46  65 2.83  57 2.83
                            64 2.83  94 2.83  63 2.83  59 2.84
  67  0.500  0.441  0.004-  31 2.45  62 2.45  68 2.45  28 2.45  64 2.45  22 2.46  64 2.83  31 2.83
                            28 2.83  62 2.83  22 2.84  68 2.84
  68  0.535  0.500  0.672-  73 2.45  64 2.45  70 2.45  67 2.45  28 2.46  65 2.47  70 2.83  64 2.83
                            28 2.83  73 2.84  67 2.84  65 2.85
  69  0.674  0.618  0.339- 100 2.45  71 2.45  78 2.45  72 2.46  99 2.46 102 2.46 102 2.83  72 2.83
                            99 2.83  71 2.84  78 2.84 100 2.84
  70  0.570  0.559  0.339-  74 2.45  68 2.45  73 2.45  72 2.45  71 2.46  65 2.47  73 2.83  68 2.83
                            72 2.83  74 2.83  71 2.84  65 2.84
  71  0.605  0.618  0.006-  76 2.45  69 2.45  72 2.45  74 2.46  70 2.46  78 2.46  74 2.83  78 2.83
                            76 2.83  72 2.83  69 2.84  70 2.84
[...]
   0.140E+04 0.179E+04 -.202E-02   -.140E+04 -.179E+04 -.111E-01   -.236E-01 -.113E+00 0.142E-01   -.130E+00 -.728E+00 0.113E-03
   0.102E+04 0.119E+04 0.136E-01   -.102E+04 -.119E+04 -.158E-02   0.648E-01 0.697E-01 0.612E-02   -.209E+00 -.121E+00 0.286E-03
   0.710E+03 0.175E+04 -.373E-01   -.710E+03 -.175E+04 0.133E-01   0.310E-01 0.561E-01 0.176E-01   0.618E+00 -.119E+01 -.142E-03
   0.210E+04 0.186E+04 0.238E-01   -.210E+04 -.186E+04 0.773E-03   -.379E+00 -.266E+00 -.105E-01   -.476E+00 -.470E+00 0.411E-03
   0.169E+04 0.124E+04 -.113E-01   -.169E+04 -.124E+04 0.420E-02   -.386E-01 -.276E-01 0.935E-02   -.514E+00 0.157E+00 -.488E-03
   0.333E+03 -.114E+01 -.659E-01   -.333E+03 -.282E+00 0.666E-01   0.123E+00 -.276E-02 -.440E-02   -.238E+00 0.142E+01 -.365E-02
   0.133E+04 0.611E+03 -.739E-01   -.133E+04 -.612E+03 0.523E-01   0.125E+00 0.358E-01 0.745E-02   -.574E+00 0.891E+00 0.317E-03
   0.996E+03 -.119E+01 0.157E+00   -.996E+03 -.278E+00 -.134E+00   0.377E-01 -.167E-02 -.239E-01   -.620E+00 0.147E+01 -.683E-03
   0.672E+03 0.594E+03 -.758E-01   -.672E+03 -.595E+03 0.720E-01   0.701E-01 0.182E-01 0.994E-03   -.297E+00 0.643E+00 0.498E-03
   0.196E+04 0.644E+03 0.381E-01   -.196E+04 -.644E+03 -.247E-02   -.731E-01 -.486E-01 -.335E-01   -.532E+00 0.852E+00 -.345E-03
   0.163E+04 -.111E+01 -.193E-01   -.163E+04 -.239E+00 0.119E-01   0.818E-01 -.240E-02 0.873E-02   -.445E+00 0.136E+01 -.297E-03
   0.344E+03 -.117E+04 0.122E+00   -.344E+03 0.117E+04 -.121E+00   0.266E-01 -.474E-01 -.425E-02   0.317E+00 0.155E+01 0.233E-03
   0.133E+04 -.613E+03 -.735E-01   -.133E+04 0.612E+03 0.521E-01   0.133E+00 -.292E-01 0.207E-02   -.376E+00 0.140E+01 0.272E-03
   0.102E+04 -.119E+04 0.858E-02   -.102E+04 0.119E+04 0.396E-02   0.765E-01 -.696E-01 0.225E-02   -.865E-01 0.983E+00 0.186E-03
   0.672E+03 -.596E+03 -.725E-01   -.672E+03 0.595E+03 0.690E-01   0.720E-01 -.262E-01 -.164E-03   -.379E+00 0.172E+01 0.601E-03
   0.196E+04 -.645E+03 0.391E-01   -.196E+04 0.644E+03 -.361E-02   -.724E-01 0.383E-01 -.329E-01   -.222E-01 0.104E+01 -.743E-03
   0.169E+04 -.124E+04 -.105E-01   -.169E+04 0.124E+04 0.294E-02   -.407E-01 0.243E-01 0.961E-02   0.147E+00 0.511E+00 0.134E-03
   0.385E+03 -.227E+04 0.601E-01   -.386E+03 0.227E+04 -.284E-01   -.317E-01 0.173E+00 -.589E-01   0.130E+01 0.141E+00 0.218E-03
   0.140E+04 -.179E+04 -.184E-02   -.140E+04 0.179E+04 -.118E-01   -.248E-01 0.119E+00 0.810E-02   0.378E+00 -.105E+00 0.785E-03
   0.110E+04 -.234E+04 0.979E-01   -.110E+04 0.234E+04 -.264E-01   -.218E+00 0.330E+00 -.460E-01   0.842E+00 -.304E+00 -.655E-03
   0.710E+03 -.175E+04 -.345E-01   -.711E+03 0.175E+04 0.107E-01   0.305E-01 -.547E-01 0.185E-01   0.570E+00 0.454E+00 -.253E-03
   0.210E+04 -.186E+04 0.242E-01   -.210E+04 0.186E+04 0.483E-03   -.380E+00 0.276E+00 -.105E-01   0.364E+00 -.295E+00 -.268E-03
   0.179E+04 -.237E+04 -.110E-01   -.179E+04 0.237E+04 0.244E-03   -.354E+00 0.677E+00 0.263E-01   0.466E+00 -.502E+00 -.687E-03
   0.582E+03 -.292E+04 0.428E+01   -.580E+03 0.291E+04 -.448E+01   -.319E+01 0.531E+01 -.237E-01   0.127E+01 0.125E+00 -.257E-02
   0.145E+04 -.298E+04 -.757E-01   -.145E+04 0.297E+04 -.212E-01   -.365E+00 0.354E+01 0.327E-01   0.706E+00 0.113E+00 0.178E-02
   0.894E+03 -.284E+04 -.423E+01   -.895E+03 0.284E+04 0.444E+01   -.241E+00 0.746E+00 -.161E-01   0.126E+01 0.113E-01 0.492E-02
   0.210E+04 -.282E+04 0.412E+01   -.210E+04 0.281E+04 -.447E+01   -.300E+01 0.499E+01 0.247E+00   -.143E+00 0.288E+00 -.730E-02
   -.584E+03 0.292E+04 -.429E+01   0.579E+03 -.291E+04 0.449E+01   0.319E+01 -.533E+01 0.156E-01   0.138E+01 -.389E+00 -.264E-02
   -.179E+04 0.238E+04 0.211E-01   0.179E+04 -.237E+04 -.996E-02   0.342E+00 -.646E+00 -.335E-01   0.172E+01 -.898E+00 -.335E-03
   -.897E+03 0.284E+04 0.422E+01   0.895E+03 -.284E+04 -.444E+01   0.252E+00 -.752E+00 0.250E-01   0.179E+01 -.883E+00 0.425E-02
   -.111E+04 0.234E+04 -.912E-01   0.110E+04 -.234E+04 0.221E-01   0.215E+00 -.322E+00 0.430E-01   0.216E+01 -.139E+01 -.875E-03
   -.145E+04 0.298E+04 0.554E-01   0.145E+04 -.297E+04 0.370E-01   0.376E+00 -.358E+01 -.382E-01   0.159E+01 -.278E+00 0.157E-02
   -.178E+01 0.269E+04 0.601E-02   0.677E-01 -.268E+04 -.448E-02   -.890E-02 -.930E+00 -.197E-03   0.171E+01 -.129E+01 -.120E-02
   -.388E+03 0.227E+04 -.419E-01   0.386E+03 -.227E+04 0.783E-02   0.129E-01 -.148E+00 0.530E-01   0.203E+01 -.170E+01 -.128E-02
   -.169E+04 0.124E+04 0.319E-01   0.169E+04 -.124E+04 -.287E-01   0.338E-01 0.504E-02 -.162E-01   0.260E+01 -.110E+01 0.631E-04
   -.713E+03 0.175E+04 0.424E-01   0.710E+03 -.175E+04 -.181E-01   -.348E-01 0.652E-01 -.349E-01   0.236E+01 -.179E+01 0.813E-03
   -.103E+04 0.120E+04 0.308E-01   0.102E+04 -.119E+04 -.448E-01   -.629E-01 0.796E-01 -.209E-01   0.271E+01 -.138E+01 -.125E-02
   -.140E+04 0.180E+04 0.136E-01   0.140E+04 -.179E+04 -.375E-02   0.347E-01 -.838E-01 -.407E-01   0.245E+01 -.147E+01 -.232E-03
[...]
   -.253E+04 0.690E+03 0.579E-01   0.253E+04 -.689E+03 0.989E-02   0.696E+00 -.172E+00 -.359E-01   0.128E+01 -.406E-01 0.106E-02
   -.282E+04 -.744E+00 -.442E+01   0.282E+04 0.307E+00 0.452E+01   0.925E+00 -.486E-02 0.126E+00   0.441E+00 0.439E+00 -.474E-02
   -.291E+04 0.690E+03 0.414E+01   0.291E+04 -.691E+03 -.444E+01   0.628E+01 0.191E+00 0.102E+00   -.583E+00 0.199E+00 0.674E-02
   -.196E+04 0.646E+03 -.261E-01   0.196E+04 -.645E+03 -.653E-02   0.592E-01 -.380E-01 0.210E-01   0.245E+01 -.271E+00 -.507E-04
   -.224E+04 -.835E+00 0.203E-01   0.224E+04 0.258E+00 0.648E-02   0.178E+00 0.109E-03 -.412E-01   0.197E+01 0.577E+00 0.475E-03
   -.253E+04 -.691E+03 0.569E-01   0.253E+04 0.690E+03 0.104E-01   0.697E+00 0.165E+00 -.331E-01   0.105E+01 0.905E+00 0.164E-02
   -.287E+04 -.149E+04 -.262E+00   0.287E+04 0.149E+04 0.364E-01   0.284E+01 0.131E+01 0.271E+00   -.456E+00 0.398E+00 -.418E-02
   -.291E+04 -.692E+03 0.415E+01   0.291E+04 0.691E+03 -.444E+01   0.629E+01 -.192E+00 0.101E+00   -.803E+00 0.427E+00 0.692E-02
   -.196E+04 -.647E+03 -.278E-01   0.196E+04 0.646E+03 -.473E-02   0.602E-01 0.380E-01 0.253E-01   0.218E+01 0.138E+01 -.173E-03
   -.233E+04 -.133E+04 0.273E-01   0.233E+04 0.133E+04 -.325E-02   0.339E+00 0.190E+00 -.146E-01   0.122E+01 0.119E+01 0.219E-04
   -.279E+04 -.202E+04 0.266E-03   0.278E+04 0.202E+04 0.223E-01   0.267E+01 0.154E+01 -.281E-01   -.306E+00 0.205E+00 0.166E-02
   -.210E+04 -.187E+04 -.104E-01   0.210E+04 0.186E+04 -.127E-01   0.365E+00 0.255E+00 0.171E-01   0.135E+01 0.924E+00 -.697E-03
   -.257E+04 -.242E+04 0.135E+00   0.256E+04 0.242E+04 0.112E-01   0.245E+01 0.200E+01 -.164E+00   -.360E-01 -.173E+00 0.343E-02
   -.210E+04 -.281E+04 -.412E+01   0.210E+04 0.281E+04 0.450E+01   0.301E+01 0.502E+01 -.247E+00   0.449E+00 -.893E+00 -.886E-02
   -.787E+02 -.119E+02 -.273E-01   0.227E-10 -.909E-12 -.165E-11   0.154E+00 -.727E-02 -.311E+00   0.784E+02 0.119E+02 -.906E-03

 POSITION                                       TOTAL-FORCE (eV/Angst)
      8.46657      9.01432      0.82051         0.011550     -0.093144      0.019007
      8.47094     13.02345      0.82215        -0.048843     -0.087934     -0.003659
      6.15596     13.02464      0.00385        -0.100423      0.107243     -0.020816
      7.31141     11.01972      1.63940         0.035845     -0.023104     -0.000152
      8.47412     17.03217      0.82441         0.149866     -0.004265      0.026765
      5.00000     15.02912      0.82344         0.417099      0.062058      0.195033
      6.15881     17.03280      0.00594        -0.446276     -0.005807     -0.213390
      7.31538     15.02837      1.64199        -0.237908     -0.027517     -0.031774
      8.47118     21.04128      0.82175        -0.051204      0.086306     -0.004003
      5.00019     19.03703      0.82320         0.415805     -0.064000      0.194282
      6.15635     21.04111      0.00338        -0.102217     -0.106829     -0.021968
      7.31553     19.03668      1.64166        -0.241648      0.020649     -0.030287
      8.46709     25.05118      0.82022         0.013380      0.102104      0.019819
      7.31194     23.04578      1.63892         0.034382      0.028686      0.000804
     15.40652      5.00000      0.82270         0.270237      0.375002     -0.214690
     15.40915      9.01146      0.82380        -0.024018      0.127122     -0.023351
     11.93637      7.00685      0.82204        -0.039658     -0.165076     -0.058996
     13.09589      9.01153      0.00370         0.021531     -0.060542      0.028223
     14.25071      7.00550      1.64139        -0.109540     -0.272239      0.198593
      9.62170      7.00851      0.00252         0.223657      0.431012     -0.113999
     10.78128      9.01244      1.63998        -0.095079     -0.229808      0.017496
     15.41090     13.02523      0.82714         0.004076     -0.015004     -0.003754
     11.94066     11.01668      0.82205         0.111836      0.115034      0.004398
     13.09872     13.02225      0.00450        -0.000749      0.003859      0.021690
     14.25427     11.01759      1.64112         0.047152      0.050157     -0.003346
      9.62624     11.01807      0.00302        -0.137930      0.005721      0.017770
     10.78524     13.02199      1.64036         0.110465      0.017653      0.005075
     15.41091     17.03231      0.82834         0.010753     -0.006988     -0.004033
     11.94379     15.02666      0.82340         0.034298      0.017116     -0.010548
     13.10191     17.03170      0.01020         0.002316     -0.001881      0.000962
     14.25813     15.02812      1.64350         0.008927     -0.009157      0.000880
      9.63002     15.02731      0.00468         0.115181      0.022655      0.005081
     10.78847     17.03168      1.64302         0.017274      0.000135      0.004234
     15.41019     21.03834      0.82798         0.005196      0.016054      0.000509
     11.94336     19.03672      0.82365         0.041165     -0.007595     -0.015834
     13.09803     21.04126      0.00512         0.010883     -0.001835      0.018236
     14.25755     19.03560      1.64403         0.006235      0.002391      0.000270
      9.62996     19.03660      0.00452         0.112115     -0.031453      0.005164
     10.78505     21.04191      1.64048         0.107171     -0.021268      0.005411
     15.40858     25.05257      0.82501        -0.025889     -0.119817     -0.023662
     11.94052     23.04737      0.82263         0.111530     -0.113694     -0.001451
     13.09571     25.05275      0.00453         0.020851      0.072544      0.028131
     14.25373     23.04603      1.64220         0.046299     -0.044859     -0.002363
      9.62651     23.04666      0.00293        -0.138536      0.002324      0.017181
     10.78150     25.05244      1.64018        -0.099049      0.240527      0.018113
     15.40611     29.06524      0.82337         0.270996     -0.381029     -0.215956
     11.93645     27.05828      0.82237        -0.044727      0.163224     -0.059166
     14.25040     27.05921      1.64221        -0.107892      0.276469      0.199493
      9.62208     27.05712      0.00239         0.227033     -0.432000     -0.113752
     17.72142      5.00032      1.64058        -0.280518      0.367485      0.215737
     22.34873      9.01380      0.82699         0.086975     -0.205546     -0.019510
     18.87826      7.00628      0.82458         0.105607     -0.269464     -0.190997
     20.03403      9.01292      0.00983        -0.021345     -0.059648     -0.023729
     21.19246      7.00812      1.64302         0.040384     -0.169828      0.059059
     16.56452      7.00503      0.00552        -0.006594     -0.332984      0.003398
     17.72101      9.01199      1.64554         0.009329      0.145933      0.020839
     22.34764     13.02290      0.83143        -0.108502      0.042622     -0.009661
     18.87662     11.01918      0.83137        -0.048161      0.052306     -0.006507
     20.03374     13.02320      0.01410         0.005652      0.008247     -0.032815
     21.19054     11.01796      1.64859        -0.095729      0.142480     -0.027837
[...]
     24.66190     13.02455      1.64701         0.034484     -0.069128      0.015409
     25.81865     15.02932      0.82711         0.229553     -0.013109      0.036219
     26.97560     17.03359      0.00650         0.435585     -0.003474      0.220082
     28.13366     15.02965      1.64189        -0.411872      0.058248     -0.183405
     23.50445     15.02841      0.01275        -0.114694      0.028300     -0.008434
     24.66094     17.03340      1.64732        -0.153346     -0.000077     -0.010614
     25.81836     19.03769      0.82694         0.229959      0.005789      0.039178
     26.97638     21.04172      0.00663         0.108135     -0.103729      0.044270
     28.13345     19.03760      1.64178        -0.409648     -0.062518     -0.184420
     23.50408     19.03810      0.01255        -0.112993     -0.028490     -0.004160
     24.66142     21.04224      1.64682         0.040237      0.065942      0.012724
     25.81953     23.04622      0.82600        -0.015935      0.031035     -0.000629
     23.50456     23.04726      0.01004         0.121021     -0.018200     -0.003496
     24.66297     25.05127      1.64416         0.003213      0.098749     -0.011524
     23.50654     27.05677      0.00590        -0.223439     -0.427429      0.127955
    total drift:                               -0.078809      0.030173     -0.339618

 mean value of Nose-termostat <S>:     1.000 mean value of <T> :     0.000
 mean temperature <T/S>/<1/S>  :     0.000

 writing wavefunctions

 total charge

[...]

 magnetization (x)

# of ion     s       p       d       tot
  1       -0.005  -0.022   2.667   2.640
  2       -0.017  -0.061   2.409   2.331
  3       -0.005  -0.022   2.655   2.629
  4       -0.005  -0.022   2.658   2.631
  5       -0.015  -0.061   2.362   2.285
  6        0.010   0.007   2.768   2.784
  7       -0.013  -0.048   2.511   2.449
  8       -0.016  -0.061   2.453   2.376
  9       -0.017  -0.061   2.408   2.330
 10        0.010   0.007   2.770   2.786
 11       -0.005  -0.022   2.656   2.630
 12       -0.016  -0.061   2.452   2.375
 13       -0.005  -0.022   2.666   2.639
 14       -0.005  -0.022   2.658   2.631
 15        0.011   0.004   2.776   2.791
 16       -0.015  -0.060   2.352   2.276
 17       -0.003  -0.022   2.682   2.657
 18       -0.015  -0.059   2.395   2.321
 19       -0.012  -0.049   2.476   2.415
 20        0.008   0.011   2.755   2.774
 21       -0.017  -0.062   2.458   2.379
 22       -0.015  -0.059   2.265   2.191
 23       -0.015  -0.060   2.321   2.245
 24       -0.015  -0.060   2.280   2.205
 25       -0.015  -0.061   2.300   2.224
 26       -0.016  -0.060   2.427   2.351
 27       -0.014  -0.061   2.321   2.246
 28       -0.014  -0.057   2.267   2.195
 29       -0.015  -0.060   2.279   2.203
 30       -0.015  -0.059   2.268   2.195
 31       -0.014  -0.058   2.283   2.210
 32       -0.015  -0.061   2.313   2.237
 33       -0.014  -0.061   2.296   2.221
 34       -0.015  -0.059   2.262   2.188
 35       -0.015  -0.060   2.276   2.200
 36       -0.015  -0.060   2.276   2.201
 37       -0.014  -0.058   2.280   2.208
 38       -0.015  -0.061   2.311   2.235
 39       -0.014  -0.061   2.318   2.243
 40       -0.015  -0.060   2.350   2.275
 41       -0.015  -0.060   2.318   2.243
 42       -0.015  -0.059   2.393   2.320
 43       -0.015  -0.061   2.296   2.221
 44       -0.016  -0.060   2.426   2.350
 45       -0.017  -0.062   2.457   2.379
 46        0.011   0.004   2.772   2.788
 47       -0.004  -0.022   2.679   2.653
 48       -0.012  -0.049   2.475   2.414
 49        0.008   0.011   2.750   2.769
 50        0.012   0.004   2.779   2.795
 51       -0.017  -0.062   2.457   2.379
 52       -0.012  -0.049   2.477   2.417
 53       -0.015  -0.059   2.394   2.320
 54       -0.003  -0.021   2.687   2.662
 55       -0.015  -0.060   2.458   2.383
 56       -0.015  -0.060   2.351   2.275
 57       -0.014  -0.061   2.318   2.243
 58       -0.015  -0.061   2.298   2.223
 59       -0.015  -0.060   2.279   2.204
 60       -0.015  -0.061   2.318   2.243
[...]
 90       -0.017  -0.061   2.407   2.330
 91       -0.016  -0.061   2.451   2.374
 92       -0.013  -0.048   2.512   2.450
 93        0.010   0.007   2.777   2.794
 94       -0.015  -0.061   2.311   2.234
 95       -0.016  -0.061   2.359   2.283
 96       -0.016  -0.061   2.451   2.374
 97       -0.005  -0.021   2.663   2.637
 98        0.010   0.007   2.778   2.794
 99       -0.015  -0.061   2.310   2.234
100       -0.017  -0.061   2.407   2.330
101       -0.005  -0.021   2.667   2.641
102       -0.016  -0.060   2.425   2.349
103       -0.005  -0.021   2.675   2.650
104        0.008   0.012   2.766   2.786
tot       -1.095  -4.749 254.677 248.833