 vasp.4.6.36 17Feb09 complex
 executed on             LinuxIFC date 2013.02.08  09:57:01

 INCAR:
 POTCAR:   PAW_PBE Si 05Jan2001
 POTCAR:   PAW_PBE H 15Jun2001
 POTCAR:   PAW_PBE Si 05Jan2001
   VRHFIN =Si: s2p2

   TITEL  = PAW_PBE Si 05Jan2001
   POMASS =   28.085; ZVAL   =    4.000    mass and valenz
   ENMAX  =  245.345; ENMIN  =  184.009 eV
   QCUT   =   -4.246; QGAM   =    8.493    optimization parameters

   Description
     l     E      TYP  RCUT    TYP  RCUT
     0   .000     23  1.900
     0   .000     23  1.900
     1   .000     23  1.900
     1   .000     23  1.900
     2   .000      7  1.900

 POTCAR:   PAW_PBE H 15Jun2001
   VRHFIN =H: ultrasoft test

   TITEL  = PAW_PBE H 15Jun2001
   POMASS =    1.000; ZVAL   =    1.000    mass and valenz
   ENMAX  =  250.000; ENMIN  =  200.000 eV
   QCUT   =   -5.749; QGAM   =   11.498    optimization parameters

   Description
     l     E      TYP  RCUT    TYP  RCUT
     0   .000     23  1.100
     0   .500     23  1.100
     1  -.300     23  1.100

 Optimization of the real space projectors (new method)

 maximal supplied QI-value         = 19.84
 optimisation between [QCUT,QGAM] = [  7.14, 14.48] = [ 14.29, 58.75] Ry
 Optimized for a Real-space Cutoff    1.64 Angstroem

   l    n(q)    QCUT    max X(q) W(low)/X(q) W(high)/X(q)  e(spline)
   0      7     7.143     8.708    0.20E-04    0.59E-05    0.16E-07
   0      7     7.143   106.241    0.40E-03    0.58E-03    0.96E-07
   1      6     7.143     5.901    0.17E-03    0.76E-04    0.37E-07
   1      6     7.143    73.241    0.48E-03    0.94E-04    0.18E-06
 Optimization of the real space projectors (new method)

 maximal supplied QI-value         = 34.20
 optimisation between [QCUT,QGAM] = [  7.18, 14.37] = [ 14.45, 57.79] Ry
 Optimized for a Real-space Cutoff    2.13 Angstroem

   l    n(q)    QCUT    max X(q) W(low)/X(q) W(high)/X(q)  e(spline)
   0      9     7.183     4.436    0.64E-04    0.20E-03    0.35E-06
   0      9     7.183    13.769    0.39E-03    0.14E-02    0.15E-05
   1      9     7.183     3.837    0.37E-03    0.14E-02    0.11E-05
 PAW_PBE Si 05Jan2001                   :
 PAW_PBE H 15Jun2001                    :

 POSCAR:  bulk Si
  positions in direct lattice

 ion  position               nearest neighbor table
   1  0.977  0.977  0.977-  65 1.58  47 2.34  54 2.34  32 2.34
   2  0.256  0.256  0.998-   5 2.34   6 2.35  15 2.37  16 2.37
   3  0.256  0.998  0.256-   5 2.34   7 2.35  22 2.37  24 2.37
   4  0.998  0.256  0.256-   5 2.34   8 2.35  38 2.37  39 2.37
   5  0.148  0.148  0.148-  65 1.67   3 2.34   4 2.34   2 2.34
   6  0.378  0.378  0.126-   2 2.35  49 2.36  36 2.37  19 2.37
   7  0.378  0.126  0.378-   3 2.35  41 2.36  36 2.37  10 2.37
   8  0.126  0.378  0.378-   4 2.35  25 2.36  19 2.37  10 2.37
   9  1.000  1.000  0.500-  24 2.37  39 2.37  62 2.37  13 2.37
  10  0.250  0.250  0.501-  14 2.37  13 2.37   7 2.37   8 2.37
  11  0.250  0.001  0.750-  13 2.37  32 2.37  15 2.37  30 2.37
  12  0.001  0.250  0.750-  13 2.37  47 2.37  16 2.37  46 2.37
  13  0.125  0.125  0.625-  11 2.37  12 2.37  10 2.37   9 2.37
  14  0.375  0.375  0.626-  27 2.37  44 2.37  10 2.37  57 2.37
  15  0.375  0.124  0.875-  33 2.37   2 2.37  11 2.37  44 2.37
  16  0.124  0.375  0.875-  17 2.37   2 2.37  12 2.37  27 2.37
  17  1.000  0.500  1.000-  16 2.37  38 2.37  63 2.37  21 2.37
  18  0.250  0.750  0.001-  21 2.37  32 2.37  22 2.37  31 2.37
  19  0.250  0.501  0.250-  23 2.37  21 2.37   6 2.37   8 2.37
  20  0.001  0.750  0.250-  21 2.37  54 2.37  24 2.37  55 2.37
  21  0.125  0.625  0.125-  18 2.37  20 2.37  19 2.37  17 2.37
  22  0.375  0.875  0.124-  33 2.37   3 2.37  18 2.37  52 2.37
  23  0.375  0.626  0.375-  26 2.37  52 2.37  19 2.37  57 2.37
  24  0.124  0.875  0.375-   9 2.37   3 2.37  20 2.37  26 2.37
  25  1.000  0.501  0.501-  29 2.36   8 2.36  46 2.37  55 2.37
  26  0.250  0.750  0.500-  23 2.37  29 2.37  30 2.37  24 2.37
  27  0.250  0.500  0.750-  14 2.37  29 2.37  31 2.37  16 2.37
  28  0.999  0.747  0.747-  32 2.35  29 2.36  62 2.37  63 2.37
  29  0.125  0.624  0.624-  25 2.36  28 2.36  27 2.37  26 2.37
  30  0.375  0.875  0.625-  60 2.37  41 2.37  26 2.37  11 2.37
  31  0.375  0.625  0.875-  60 2.37  49 2.37  27 2.37  18 2.37
  32  0.127  0.869  0.869-   1 2.34  28 2.35  18 2.37  11 2.37
  33  0.500  1.000  1.000-  15 2.37  22 2.37  64 2.37  37 2.37
  34  0.750  0.250  0.001-  37 2.37  47 2.37  38 2.37  48 2.37
  35  0.750  0.001  0.250-  37 2.37  54 2.37  39 2.37  56 2.37
  36  0.501  0.250  0.250-  40 2.37  37 2.37   6 2.37   7 2.37
  37  0.625  0.125  0.125-  34 2.37  35 2.37  36 2.37  33 2.37
  38  0.875  0.375  0.124-  17 2.37   4 2.37  34 2.37  51 2.37
  39  0.875  0.124  0.375-   9 2.37   4 2.37  35 2.37  42 2.37
  40  0.626  0.375  0.375-  42 2.37  51 2.37  36 2.37  57 2.37
  41  0.501  1.000  0.501-  45 2.36   7 2.36  30 2.37  56 2.37
  42  0.750  0.250  0.500-  40 2.37  45 2.37  46 2.37  39 2.37
  43  0.747  0.999  0.747-  47 2.35  45 2.36  62 2.37  64 2.37
  44  0.500  0.250  0.750-  14 2.37  45 2.37  48 2.37  15 2.37
  45  0.624  0.125  0.624-  41 2.36  43 2.36  42 2.37  44 2.37
  46  0.875  0.375  0.625-  59 2.37  25 2.37  42 2.37  12 2.37
  47  0.869  0.127  0.869-   1 2.34  43 2.35  34 2.37  12 2.37
  48  0.625  0.375  0.875-  59 2.37  49 2.37  44 2.37  34 2.37
  49  0.501  0.501  1.000-  53 2.36   6 2.36  48 2.37  31 2.37
  50  0.747  0.747  0.999-  54 2.35  53 2.36  63 2.37  64 2.37
  51  0.750  0.500  0.250-  40 2.37  53 2.37  55 2.37  38 2.37
  52  0.500  0.750  0.250-  23 2.37  53 2.37  56 2.37  22 2.37
  53  0.624  0.624  0.125-  49 2.36  50 2.36  51 2.37  52 2.37
  54  0.869  0.869  0.127-   1 2.34  50 2.35  35 2.37  20 2.37
  55  0.875  0.625  0.375-  58 2.37  25 2.37  51 2.37  20 2.37
  56  0.625  0.875  0.375-  58 2.37  41 2.37  52 2.37  35 2.37
  57  0.500  0.500  0.500-  61 2.37  23 2.37  40 2.37  14 2.37
  58  0.750  0.750  0.499-  55 2.37  56 2.37  62 2.37  61 2.37
  59  0.750  0.499  0.750-  46 2.37  48 2.37  63 2.37  61 2.37
  60  0.499  0.750  0.750-  30 2.37  31 2.37  64 2.37  61 2.37
  61  0.625  0.625  0.625-  57 2.37  58 2.37  59 2.37  60 2.37
  62  0.875  0.875  0.624-  58 2.37   9 2.37  43 2.37  28 2.37
  63  0.875  0.624  0.875-  59 2.37  17 2.37  50 2.37  28 2.37
  64  0.624  0.875  0.875-  60 2.37  33 2.37  50 2.37  43 2.37
  65  0.060  0.060  0.060-   1 1.58   5 1.67

  LATTYP: Found a simple cubic cell.
 ALAT       =    10.9520000000

  Lattice vectors:

 A1 = (  10.9520000000,   0.0000000000,   0.0000000000)
 A2 = (   0.0000000000,  10.9520000000,   0.0000000000)
 A3 = (   0.0000000000,   0.0000000000,  10.9520000000)
 Subroutine PRICEL returns:
 Original cell was already a primitive cell.

Analysis of symmetry for initial positions (statically):

 Routine SETGRP: Setting up the symmetry group for a
 simple cubic supercell.

 Subroutine GETGRP returns: Found  6 space group operations
 (whereof  6 operations were pure point group operations)
 out of a pool of 48 trial point group operations.

The static configuration has the point symmetry C_3v.

Analysis of symmetry for dynamics (positions and initial velocities):

 Subroutine DYNSYM returns: Found  6 space group operations
 (whereof  6 operations were pure point group operations)
 out of a pool of  6 trial space group operations
 (whereof  6 operations were pure point group operations)
 and found also     1 'primitive' translations

The dynamic configuration has the point symmetry C_3v.

Analysis of constrained symmetry for selective dynamics:

 Subroutine DYNSYM returns: Found  6 space group operations
 (whereof  6 operations were pure point group operations)
 out of a pool of  6 trial space group operations
 (whereof  6 operations were pure point group operations)
 and found also     1 'primitive' translations

The constrained configuration has the point symmetry C_3v.

 KPOINTS: 10x10x10

Automatic generation of k-mesh.

 Subroutine IBZKPT returns following result:

 Found      6 irreducible k-points:

 Following reciprocal coordinates:
            Coordinates               Weight
  0.000000  0.000000  0.000000      1.000000
  0.333333  0.000000  0.000000      6.000000
  0.333333  0.333333  0.000000      6.000000
 -0.333333  0.333333  0.000000      6.000000
  0.333333  0.333333  0.333333      2.000000
 -0.333333  0.333333  0.333333      6.000000

 Following cartesian coordinates:
            Coordinates               Weight
  0.000000  0.000000  0.000000      1.000000
  0.166667  0.000000  0.000000      6.000000
  0.166667  0.166667  0.000000      6.000000
 -0.166667  0.166667  0.000000      6.000000
  0.166667  0.166667  0.166667      2.000000
 -0.166667  0.166667  0.166667      6.000000

 TETIRR: Found     30 inequivalent tetrahedra from      162

 I would recommend the setting:
   dimension x,y,z NGX =    38 NGY =   38 NGZ =   38
 SYSTEM =  bcc iron
 POSCAR =   bulk Si

 Startparameter for this run:
   NWRITE =      2    write-flag & timer
   PREC   = normal    medium, high low
   ISTART =      1    job   : 0-new  1-cont  2-samecut
   ICHARG =      1    charge: 1-file 2-atom 10-const
   ISPIN  =      1    spin polarized calculation?
   LNONCOLLINEAR =      F non collinear calculations
   LSORBIT =      F    spin-orbit coupling
   INIWAV =      1    electr: 0-lowe 1-rand  2-diag
   LASPH  =      F    aspherical Exc in radial PAW
   METAGGA=      F    non-selfconsistent MetaGGA calc.

 Electronic Relaxation 1
   ENCUT  =  200.0 eV  14.70 Ry    3.83 a.u.  12.63 12.63 12.63*2*pi/ulx,y,z
   ENINI  =  200.0     initial cutoff
   ENAUG  =  400.0 eV  augmentation charge cutoff
   NELM   =     60;   NELMIN=  4; NELMDL=  0     # of ELM steps
   EDIFF  = 0.1E-05   stopping-criterion for ELM
   LREAL  =      T    real-space projection
   LCOMPAT=      F    compatible to vasp.4.4
   LREAL_COMPAT= F    compatible to vasp.4.5.1-3
   GGA_COMPAT  = T    GGA compatible to vasp.4.4-vasp.4.6
   LMAXPAW     = -100 max onsite density
   LMAXMIX     =    2 max onsite mixed and CHGCAR
   VOSKOWN=      0    Vosko Wilk Nusair interpolation
   ROPT   =   -0.00050  -0.00050
 Ionic relaxation
   EDIFFG = 0.1E-04   stopping-criterion for IOM
   NSW    =    100    number of steps for IOM
   NBLOCK =      1;   KBLOCK =    100    inner block; outer block
   IBRION =      3    ionic relax: 0-MD 1-quasi-New 2-CG
   NFREE  =      0    steps in history (QN), initial steepest desc. (CG)
   ISIF   =      2    stress and relaxation
   IWAVPR =     11    prediction:  0-non 1-charg 2-wave 3-comb
   ISYM   =      2    0-nonsym 1-usesym 2-fastsym
   LCORR  =      T    Harris-Foulkes like correction to forces

   POTIM  =   0.50    time-step for ionic-motion
   TEIN   =    0.0    initial temperature
   TEBEG  =    0.0;   TEEND  =   0.0 temperature during run
   SMASS  =   0.40    Nose mass-parameter (am)
   estimated Nose-frequenzy (Omega)   =  0.26E+11 period in steps =****** mass=   0.365E-27a.u.
   NPACO  =    256;   APACO  = 16.0  distance and # of slots for P.C.
   PSTRESS=    0.0 pullay stress

  Mass of Ions in am
   POMASS =  28.09  1.00
  Ionic Valenz
   ZVAL   =   4.00  1.00
  Atomic Wigner-Seitz radii
   NELECT =     257.0000    total number of electrons
[...]
    182       9.6175      0.00000
    183       9.6313      0.00000
    184       9.6651      0.00000
    185      11.0250      0.00000
    186      11.0401      0.00000
    187      11.0504      0.00000
    188      11.1687      0.00000
    189      11.3765      0.00000
    190      11.5329      0.00000
    191      11.6036      0.00000
    192      11.8128      0.00000

 soft charge-density along one line, spin component           1
         0         1         2         3         4         5         6         7         8         9
 total charge-density along one line

------------------------ aborting loop because EDIFF is reached ----------------------------------------

 d Force =-0.7468217E-05[-0.672E-04, 0.523E-04]  d Energy =-0.1422364E-05-0.605E-05
 d Force =-0.1879289E-02[-0.216E-02,-0.160E-02]  d Ewald  =-0.1879280E-02-0.907E-08

  FREE ENERGIE OF THE ION-ELECTRON SYSTEM (eV)
  free  energy   TOTEN  =      -347.596874 eV

  energy  without entropy=     -347.596874  energy(sigma->0) =     -347.596874

  FORCE on cell =-STRESS in cart. coord.  units (eV/reduce length):
  Direction    X        Y        Z        XY       YZ       ZX
  Alpha Z    105.85    105.85    105.85
  Ewald    -2420.61  -2420.61  -2420.61     -0.72     -0.72     -0.72
  Hartree    164.31    164.31    164.31      0.44      0.44      0.44
  E(xc)     -811.89   -811.89   -811.89      0.14      0.14      0.14
  Local     -958.74   -958.74   -958.74      3.74      3.74      3.74
  n-local   2487.00   2488.70   2483.41     -1.49     -4.61     -1.31
  augment   -370.24   -370.24   -370.24      0.21      0.21      0.21
  Kinetic   1801.47   1810.68   1801.81      2.58     -2.64      2.26
  Total       -0.29     -0.29     -0.29      2.07      2.07      2.07
  in kB       -0.36     -0.36     -0.36      2.53      2.53      2.53

 VOLUME and BASIS-vectors are now :
  energy-cutoff  :      200.00
  volume of cell :     1313.65
      direct lattice vectors                 reciprocal lattice vectors
    10.952000000  0.000000000  0.000000000     0.091307524  0.000000000  0.000000000
     0.000000000 10.952000000  0.000000000     0.000000000  0.091307524  0.000000000
     0.000000000  0.000000000 10.952000000     0.000000000  0.000000000  0.091307524

  length of vectors
    10.952000000 10.952000000 10.952000000     0.091307524  0.091307524  0.091307524

 FORCES acting on ions
    electron-ion (+dipol)            ewald-force                    non-local-force                 convergence-correction
   -.678E+00 -.678E+00 -.678E+00   0.435E+00 0.435E+00 0.435E+00   0.249E+00 0.249E+00 0.249E+00   0.108E-04 0.108E-04 0.113E-04
   0.263E+01 0.263E+01 0.628E+01   -.234E+01 -.234E+01 -.586E+01   -.290E+00 -.290E+00 -.418E+00   -.120E-03 -.120E-03 0.247E-03
   0.263E+01 0.628E+01 0.263E+01   -.234E+01 -.586E+01 -.234E+01   -.290E+00 -.418E+00 -.290E+00   -.120E-03 0.247E-03 -.120E-03
   0.628E+01 0.263E+01 0.263E+01   -.586E+01 -.234E+01 -.234E+01   -.418E+00 -.290E+00 -.290E+00   0.247E-03 -.120E-03 -.120E-03
   0.604E+00 0.604E+00 0.604E+00   -.376E+00 -.376E+00 -.376E+00   -.223E+00 -.223E+00 -.223E+00   0.262E-04 0.262E-04 0.257E-04
   -.121E+01 -.121E+01 -.809E+00   0.131E+01 0.131E+01 0.468E+00   -.981E-01 -.981E-01 0.343E+00   0.830E-05 0.830E-05 -.121E-03
   -.121E+01 -.809E+00 -.121E+01   0.131E+01 0.468E+00 0.131E+01   -.981E-01 0.343E+00 -.981E-01   0.849E-05 -.120E-03 0.827E-05
   -.809E+00 -.121E+01 -.121E+01   0.468E+00 0.131E+01 0.131E+01   0.343E+00 -.981E-01 -.981E-01   -.120E-03 0.849E-05 0.827E-05
   -.819E-01 -.819E-01 0.883E+00   0.804E-01 0.804E-01 -.916E+00   0.543E-03 0.543E-03 0.347E-01   0.750E-05 0.750E-05 -.470E-04
   0.402E+00 0.402E+00 -.107E+01   -.298E+00 -.298E+00 0.117E+01   -.103E+00 -.103E+00 -.112E+00   -.486E-04 -.486E-04 -.160E-04
   0.687E+00 -.145E+01 -.261E+01   -.551E+00 0.147E+01 0.237E+01   -.135E+00 -.200E-01 0.246E+00   0.905E-04 -.337E-05 -.529E-04
   -.145E+01 0.687E+00 -.261E+01   0.147E+01 -.551E+00 0.237E+01   -.200E-01 -.135E+00 0.246E+00   -.337E-05 0.905E-04 -.529E-04
   0.886E-01 0.886E-01 -.899E+00   -.867E-01 -.867E-01 0.929E+00   -.301E-02 -.301E-02 -.276E-01   -.712E-06 -.712E-06 -.966E-04
   -.245E+00 -.245E+00 -.474E+00   0.224E+00 0.224E+00 0.496E+00   0.236E-01 0.236E-01 -.192E-01   -.271E-04 -.271E-04 0.770E-04
   0.261E+01 0.143E+01 -.680E+00   -.237E+01 -.146E+01 0.547E+00   -.248E+00 0.227E-01 0.134E+00   0.211E-04 0.518E-05 0.725E-04
   0.143E+01 0.261E+01 -.680E+00   -.146E+01 -.237E+01 0.547E+00   0.227E-01 -.248E+00 0.134E+00   0.518E-05 0.211E-04 0.725E-04
   -.819E-01 0.883E+00 -.819E-01   0.804E-01 -.916E+00 0.804E-01   0.543E-03 0.347E-01 0.543E-03   0.790E-05 -.469E-04 0.788E-05
   0.687E+00 -.261E+01 -.145E+01   -.551E+00 0.237E+01 0.147E+01   -.135E+00 0.246E+00 -.200E-01   0.902E-04 -.532E-04 -.344E-05
   0.402E+00 -.107E+01 0.402E+00   -.298E+00 0.117E+01 -.298E+00   -.103E+00 -.112E+00 -.103E+00   -.488E-04 -.161E-04 -.489E-04
   -.145E+01 -.261E+01 0.687E+00   0.147E+01 0.237E+01 -.551E+00   -.200E-01 0.246E+00 -.135E+00   -.368E-05 -.531E-04 0.901E-04
   0.886E-01 -.899E+00 0.886E-01   -.867E-01 0.929E+00 -.867E-01   -.301E-02 -.276E-01 -.301E-02   -.111E-05 -.967E-04 -.109E-05
   0.261E+01 -.680E+00 0.143E+01   -.237E+01 0.547E+00 -.146E+01   -.248E+00 0.134E+00 0.227E-01   0.211E-04 0.724E-04 0.494E-05
   -.245E+00 -.474E+00 -.245E+00   0.224E+00 0.496E+00 0.224E+00   0.236E-01 -.192E-01 0.236E-01   -.271E-04 0.768E-04 -.272E-04
   0.143E+01 -.680E+00 0.261E+01   -.146E+01 0.547E+00 -.237E+01   0.227E-01 0.134E+00 -.248E+00   0.487E-05 0.720E-04 0.208E-04
   0.163E+01 -.178E+00 -.178E+00   -.120E+01 0.146E+00 0.146E+00   -.427E+00 0.326E-01 0.326E-01   0.171E-03 -.109E-03 -.109E-03
   0.107E+00 -.396E+00 0.240E+00   -.149E-01 0.315E+00 -.243E+00   -.910E-01 0.815E-01 -.298E-03   -.115E-04 -.608E-04 -.572E-05
   0.107E+00 0.240E+00 -.396E+00   -.149E-01 -.243E+00 0.315E+00   -.910E-01 -.298E-03 0.815E-01   -.116E-04 -.579E-05 -.605E-04
   0.782E+00 0.122E+01 0.122E+01   -.447E+00 -.132E+01 -.132E+01   -.334E+00 0.101E+00 0.101E+00   -.108E-03 0.160E-05 0.182E-05
   -.162E+01 0.180E+00 0.180E+00   0.119E+01 -.148E+00 -.148E+00   0.421E+00 -.314E-01 -.314E-01   0.171E-03 -.101E-03 -.101E-03
   0.388E+00 -.128E+00 -.217E+00   -.308E+00 0.338E-01 0.220E+00   -.800E-01 0.949E-01 -.480E-02   -.968E-04 0.970E-05 -.125E-04
   0.388E+00 -.217E+00 -.128E+00   -.308E+00 0.220E+00 0.338E-01   -.800E-01 -.480E-02 0.949E-01   -.970E-04 -.126E-04 0.981E-05
   -.627E+01 -.263E+01 -.263E+01   0.586E+01 0.234E+01 0.234E+01   0.413E+00 0.289E+00 0.289E+00   0.228E-03 -.145E-03 -.144E-03
   0.883E+00 -.819E-01 -.819E-01   -.916E+00 0.804E-01 0.804E-01   0.347E-01 0.543E-03 0.543E-03   -.469E-04 0.790E-05 0.788E-05
   -.261E+01 0.687E+00 -.145E+01   0.237E+01 -.551E+00 0.147E+01   0.246E+00 -.135E+00 -.200E-01   -.532E-04 0.902E-04 -.344E-05
   -.261E+01 -.145E+01 0.687E+00   0.237E+01 0.147E+01 -.551E+00   0.246E+00 -.200E-01 -.135E+00   -.531E-04 -.368E-05 0.901E-04
   -.107E+01 0.402E+00 0.402E+00   0.117E+01 -.298E+00 -.298E+00   -.112E+00 -.103E+00 -.103E+00   -.161E-04 -.488E-04 -.489E-04
   -.899E+00 0.886E-01 0.886E-01   0.929E+00 -.867E-01 -.867E-01   -.276E-01 -.301E-02 -.301E-02   -.967E-04 -.111E-05 -.109E-05
   -.680E+00 0.261E+01 0.143E+01   0.547E+00 -.237E+01 -.146E+01   0.134E+00 -.248E+00 0.227E-01   0.724E-04 0.211E-04 0.494E-05
   -.680E+00 0.143E+01 0.261E+01   0.547E+00 -.146E+01 -.237E+01   0.134E+00 0.227E-01 -.248E+00   0.720E-04 0.487E-05 0.208E-04
   -.474E+00 -.245E+00 -.245E+00   0.496E+00 0.224E+00 0.224E+00   -.192E-01 0.236E-01 0.236E-01   0.768E-04 -.271E-04 -.272E-04
   -.178E+00 0.163E+01 -.178E+00   0.146E+00 -.120E+01 0.146E+00   0.326E-01 -.427E+00 0.326E-01   -.109E-03 0.171E-03 -.109E-03
   -.396E+00 0.107E+00 0.240E+00   0.315E+00 -.149E-01 -.243E+00   0.815E-01 -.910E-01 -.298E-03   -.608E-04 -.115E-04 -.572E-05
   0.122E+01 0.782E+00 0.122E+01   -.132E+01 -.447E+00 -.132E+01   0.101E+00 -.334E+00 0.101E+00   0.160E-05 -.108E-03 0.182E-05
   0.240E+00 0.107E+00 -.396E+00   -.243E+00 -.149E-01 0.315E+00   -.298E-03 -.910E-01 0.815E-01   -.579E-05 -.116E-04 -.605E-04
   0.180E+00 -.162E+01 0.180E+00   -.148E+00 0.119E+01 -.148E+00   -.314E-01 0.421E+00 -.314E-01   -.101E-03 0.171E-03 -.101E-03
   -.128E+00 0.388E+00 -.217E+00   0.338E-01 -.308E+00 0.220E+00   0.949E-01 -.800E-01 -.480E-02   0.970E-05 -.968E-04 -.125E-04
   -.263E+01 -.627E+01 -.263E+01   0.234E+01 0.586E+01 0.234E+01   0.289E+00 0.413E+00 0.289E+00   -.145E-03 0.228E-03 -.144E-03
   -.217E+00 0.388E+00 -.128E+00   0.220E+00 -.308E+00 0.338E-01   -.480E-02 -.800E-01 0.949E-01   -.126E-04 -.970E-04 0.981E-05
   -.178E+00 -.178E+00 0.163E+01   0.146E+00 0.146E+00 -.120E+01   0.326E-01 0.326E-01 -.427E+00   -.109E-03 -.109E-03 0.171E-03
   0.122E+01 0.122E+01 0.782E+00   -.132E+01 -.132E+01 -.447E+00   0.101E+00 0.101E+00 -.334E+00   0.179E-05 0.179E-05 -.108E-03
   -.396E+00 0.240E+00 0.107E+00   0.315E+00 -.243E+00 -.149E-01   0.815E-01 -.298E-03 -.910E-01   -.606E-04 -.556E-05 -.117E-04
   0.240E+00 -.396E+00 0.107E+00   -.243E+00 0.315E+00 -.149E-01   -.298E-03 0.815E-01 -.910E-01   -.556E-05 -.606E-04 -.117E-04
   0.180E+00 0.180E+00 -.162E+01   -.148E+00 -.148E+00 0.119E+01   -.314E-01 -.314E-01 0.421E+00   -.101E-03 -.101E-03 0.171E-03
   -.263E+01 -.263E+01 -.627E+01   0.234E+01 0.234E+01 0.586E+01   0.289E+00 0.289E+00 0.413E+00   -.145E-03 -.145E-03 0.228E-03
   -.128E+00 -.217E+00 0.388E+00   0.338E-01 0.220E+00 -.308E+00   0.949E-01 -.480E-02 -.800E-01   0.972E-05 -.124E-04 -.971E-04
   -.217E+00 -.128E+00 0.388E+00   0.220E+00 0.338E-01 -.308E+00   -.480E-02 0.949E-01 -.800E-01   -.124E-04 0.972E-05 -.971E-04
   -.267E-01 -.267E-01 -.267E-01   0.698E-01 0.698E-01 0.698E-01   -.442E-01 -.442E-01 -.442E-01   0.273E-04 0.273E-04 0.273E-04
   0.237E+00 0.237E+00 0.453E+00   -.216E+00 -.216E+00 -.478E+00   -.193E-01 -.193E-01 0.284E-01   0.563E-05 0.563E-05 0.296E-04
   0.237E+00 0.453E+00 0.237E+00   -.216E+00 -.478E+00 -.216E+00   -.193E-01 0.284E-01 -.193E-01   0.556E-05 0.298E-04 0.566E-05
   0.453E+00 0.237E+00 0.237E+00   -.478E+00 -.216E+00 -.216E+00   0.284E-01 -.193E-01 -.193E-01   0.298E-04 0.556E-05 0.566E-05
   0.274E-01 0.274E-01 0.274E-01   -.716E-01 -.716E-01 -.716E-01   0.445E-01 0.445E-01 0.445E-01   0.256E-04 0.256E-04 0.256E-04
   -.404E+00 -.404E+00 0.111E+01   0.302E+00 0.302E+00 -.122E+01   0.103E+00 0.103E+00 0.991E-01   -.107E-04 -.107E-04 -.442E-04
   -.404E+00 0.111E+01 -.404E+00   0.302E+00 -.122E+01 0.302E+00   0.103E+00 0.991E-01 0.103E+00   -.105E-04 -.441E-04 -.104E-04
   0.111E+01 -.404E+00 -.404E+00   -.122E+01 0.302E+00 0.302E+00   0.991E-01 0.103E+00 0.103E+00   -.441E-04 -.105E-04 -.104E-04
   0.426E-01 0.426E-01 0.426E-01   -.647E-01 -.647E-01 -.647E-01   0.885E-02 0.885E-02 0.885E-02   0.165E-03 0.165E-03 0.165E-03
   -.406E-01 -.406E-01 -.406E-01   -.208E-12 -.400E-13 -.206E-12   0.463E-01 0.463E-01 0.463E-01   -.422E-03 -.422E-03 -.422E-03

 POSITION                                       TOTAL-FORCE (eV/Angst)
     10.69694     10.69694     10.69694         0.005158      0.005158      0.005158
      2.79880      2.79880     10.93261        -0.000168     -0.000168     -0.001512
      2.79880     10.93261      2.79880        -0.000168     -0.001512     -0.000168
     10.93261      2.79880      2.79880        -0.001512     -0.000168     -0.000168
      1.62273      1.62273      1.62273         0.005391      0.005391      0.005391
      4.13570      4.13570      1.38039         0.000273      0.000273      0.001881
      4.13570      1.38039      4.13570         0.000273      0.001881      0.000273
      1.38039      4.13570      4.13570         0.001881      0.000273      0.000273
     10.95093     10.95093      5.47801        -0.001005     -0.001005      0.001620
      2.74232      2.74232      5.48447         0.000263      0.000263     -0.004229
      2.73752      0.00606      8.20896         0.000654      0.001292     -0.000592
      0.00606      2.73752      8.20896         0.001292      0.000654     -0.000592
      1.36941      1.36941      6.84218        -0.001182     -0.001182      0.001629
      4.10934      4.10934      6.85141         0.002274      0.002274      0.002903
      4.11138      1.36194      9.58254        -0.000564      0.001061      0.000446
      1.36194      4.11138      9.58254         0.001061     -0.000564      0.000446
     10.95093      5.47801     10.95093        -0.001005      0.001620     -0.001005
      2.73752      8.20896      0.00606         0.000654     -0.000592      0.001292
      2.74232      5.48447      2.74232         0.000263     -0.004229      0.000263
      0.00606      8.20896      2.73752         0.001292     -0.000592      0.000654
      1.36941      6.84218      1.36941        -0.001182      0.001629     -0.001182
      4.11138      9.58254      1.36194        -0.000564      0.000446      0.001061
      4.10934      6.85141      4.10934         0.002274      0.002903      0.002274
      1.36194      9.58254      4.11138         0.001061      0.000446     -0.000564
     10.94786      5.48439      5.48439        -0.001222      0.000064      0.000064
      2.73714      8.21488      5.47545         0.000810      0.000323     -0.002458
      2.73714      5.47545      8.21488         0.000810     -0.002458      0.000323
     10.93945      8.18435      8.18435         0.001435      0.000465      0.000465
      1.37255      6.83580      6.83580        -0.001690      0.000263      0.000263
      4.10534      9.58311      6.84501         0.000025      0.000640     -0.001596
      4.10534      6.84501      9.58311         0.000025     -0.001596      0.000640
      1.38752      9.52132      9.52132        -0.001304     -0.000449     -0.000449
      5.47801     10.95093     10.95093         0.001620     -0.001005     -0.001005
      8.20896      2.73752      0.00606        -0.000592      0.000654      0.001292
      8.20896      0.00606      2.73752        -0.000592      0.001292      0.000654
      5.48447      2.74232      2.74232        -0.004229      0.000263      0.000263
      6.84218      1.36941      1.36941         0.001629     -0.001182     -0.001182
      9.58254      4.11138      1.36194         0.000446     -0.000564      0.001061
      9.58254      1.36194      4.11138         0.000446      0.001061     -0.000564
      6.85141      4.10934      4.10934         0.002903      0.002274      0.002274
      5.48439     10.94786      5.48439         0.000064     -0.001222      0.000064
      8.21488      2.73714      5.47545         0.000323      0.000810     -0.002458
      8.18435     10.93945      8.18435         0.000465      0.001435      0.000465
      5.47545      2.73714      8.21488        -0.002458      0.000810      0.000323
      6.83580      1.37255      6.83580         0.000263     -0.001690      0.000263
      9.58311      4.10534      6.84501         0.000640      0.000025     -0.001596
      9.52132      1.38752      9.52132        -0.000449     -0.001304     -0.000449
      6.84501      4.10534      9.58311        -0.001596      0.000025      0.000640
      5.48439      5.48439     10.94786         0.000064      0.000064     -0.001222
      8.18435      8.18435     10.93945         0.000465      0.000465      0.001435
      8.21488      5.47545      2.73714         0.000323     -0.002458      0.000810
      5.47545      8.21488      2.73714        -0.002458      0.000323      0.000810
      6.83580      6.83580      1.37255         0.000263      0.000263     -0.001690
      9.52132      9.52132      1.38752        -0.000449     -0.000449     -0.001304
      9.58311      6.84501      4.10534         0.000640     -0.001596      0.000025
      6.84501      9.58311      4.10534        -0.001596      0.000640      0.000025
      5.47606      5.47606      5.47606        -0.001177     -0.001177     -0.001177
      8.21048      8.21048      5.46837         0.001751      0.001751      0.002775
      8.21048      5.46837      8.21048         0.001751      0.002775      0.001751
      5.46837      8.21048      8.21048         0.002775      0.001751      0.001751
      6.84405      6.84405      6.84405         0.000251      0.000251      0.000251
      9.57768      9.57768      6.83597         0.000097      0.000097     -0.004112
      9.57768      6.83597      9.57768         0.000097     -0.004112      0.000097
      6.83597      9.57768      9.57768        -0.004112      0.000097      0.000097
      0.68489      0.68489      0.68489        -0.013165     -0.013165     -0.013165
    total drift:                                0.005264      0.005264      0.005254

 reached required accuracy - stopping structural energy minimisation
 writing wavefunctions